Tried aggregator 1 time.
MIP Presolve eliminated 456 rows and 343 columns.
MIP Presolve modified 55137 coefficients.
Reduced MIP has 1288 rows, 1232 columns, and 86252 nonzeros.
Reduced MIP has 1232 binaries, 0 generals, 0 SOSs, and 0 indicators.
Presolve time = 0,29 sec. (306,24 ticks)
Found incumbent of value 149,000000 after 0,51 sec. (498,70 ticks)
Probing time = 0,02 sec. (8,74 ticks)
Tried aggregator 1 time.
MIP Presolve eliminated 168 rows and 0 columns.
MIP Presolve modified 8237 coefficients.
Reduced MIP has 1120 rows, 1232 columns, and 78870 nonzeros.
Reduced MIP has 1232 binaries, 0 generals, 0 SOSs, and 0 indicators.
Presolve time = 0,20 sec. (173,19 ticks)
Probing time = 0,01 sec. (9,09 ticks)
Clique table members: 8074.
MIP emphasis: balance optimality and feasibility.
MIP search method: dynamic search.
Parallel mode: deterministic, using up to 8 threads.
Root relaxation solution time = 0,05 sec. (19,36 ticks)

        Nodes                                         Cuts/
   Node  Left     Objective  IInf  Best Integer    Best Bound    ItCnt     Gap

*     0+    0                          149,0000        0,0000           100,00%
*     0+    0                          117,0000        0,0000           100,00%
*     0+    0                          101,0000        0,0000           100,00%
*     0+    0                          100,0000        0,0000           100,00%
      0     0       73,2260    57      100,0000       73,2260      141   26,77%
*     0+    0                           87,0000       73,2260            15,83%
      0     0       83,4037    45       87,0000     Cuts: 147      500    4,13%
      0     0       84,1453    56       87,0000      Cuts: 95      573    3,28%

Repeating presolve.
Tried aggregator 1 time.
MIP Presolve eliminated 760 rows and 945 columns.
MIP Presolve modified 9858 coefficients.
Reduced MIP has 357 rows, 287 columns, and 9874 nonzeros.
Reduced MIP has 287 binaries, 0 generals, 0 SOSs, and 0 indicators.
Presolve time = 0,05 sec. (44,60 ticks)
Probing time = 0,00 sec. (4,02 ticks)
Tried aggregator 1 time.
MIP Presolve eliminated 4 rows and 0 columns.
MIP Presolve modified 597 coefficients.
Reduced MIP has 353 rows, 287 columns, and 9611 nonzeros.
Reduced MIP has 287 binaries, 0 generals, 0 SOSs, and 0 indicators.
Presolve time = 0,02 sec. (13,17 ticks)
Represolve time = 0,09 sec. (69,42 ticks)
Probing time = 0,00 sec. (3,94 ticks)
Clique table members: 1017.
MIP emphasis: balance optimality and feasibility.
MIP search method: dynamic search.
Parallel mode: deterministic, using up to 8 threads.
Root relaxation solution time = 0,02 sec. (13,34 ticks)

        Nodes                                         Cuts/
   Node  Left     Objective  IInf  Best Integer    Best Bound    ItCnt     Gap

*     0+    0                           87,0000       84,1453             3,28%
      0     0       84,4902    52       87,0000       84,4902      876    2,88%
*     0+    0                           86,0000       84,4902             1,76%
      0     0        cutoff             86,0000       86,0000      969    0,00%
Elapsed time = 1,67 sec. (1129,57 ticks, tree = 0,01 MB, solutions = 6)

GUB cover cuts applied:  21
Clique cuts applied:  23
Cover cuts applied:  4
Implied bound cuts applied:  20
Flow cuts applied:  3
Mixed integer rounding cuts applied:  27
Zero-half cuts applied:  15
Gomory fractional cuts applied:  1

Root node processing (before b&c):
  Real time             =    1,67 sec. (1129,71 ticks)
Parallel b&c, 8 threads:
  Real time             =    0,00 sec. (0,00 ticks)
  Sync time (average)   =    0,00 sec.
  Wait time (average)   =    0,00 sec.
                          ------------
Total (root+branch&cut) =    1,67 sec. (1129,71 ticks)

